language ESSENCE' 1.0
$ minion Nodes: 7
$ minion TotalTime: 0.00079
$ Savile Row TotalTime: 0.235
letting fs_SetExplicit_SetExplicit_Matrix1D_SetExplicit_SetOccurrence be [[[[[false, true, true, true;int(5..8)], 
[true, false, true, true;int(5..8)];int(1..2)], 
[[false, true, true, true;int(5..8)], 
[true, false, true, true;int(5..8)];int(1..2)], 
[[false, true, true, true;int(5..8)], 
[true, false, true, true;int(5..8)];int(1..2)];int(2..4)];int(1..1)];int(1..1)]
